c generated by sgen
p cnf 45 100
-2 -3 -4 0
-1 -3 -4 0
-1 -2 -4 0
-1 -2 -3 0
-6 -7 -8 0
-5 -7 -8 0
-5 -6 -8 0
-5 -6 -7 0
-10 -11 -12 0
-9 -11 -12 0
-9 -10 -12 0
-9 -10 -11 0
-14 -15 -16 0
-13 -15 -16 0
-13 -14 -16 0
-13 -14 -15 0
-18 -19 -20 0
-17 -19 -20 0
-17 -18 -20 0
-17 -18 -19 0
-22 -23 -24 0
-21 -23 -24 0
-21 -22 -24 0
-21 -22 -23 0
-26 -27 -28 0
-25 -27 -28 0
-25 -26 -28 0
-25 -26 -27 0
-30 -31 -32 0
-29 -31 -32 0
-29 -30 -32 0
-29 -30 -31 0
-34 -35 -36 0
-33 -35 -36 0
-33 -34 -36 0
-33 -34 -35 0
-38 -39 -40 0
-37 -39 -40 0
-37 -38 -40 0
-37 -38 -39 0
-41 -42 -43 0
-41 -42 -44 0
-41 -42 -45 0
-41 -43 -44 0
-41 -43 -45 0
-41 -44 -45 0
-42 -43 -44 0
-42 -43 -45 0
-42 -44 -45 0
-43 -44 -45 0
16 12 7 0
29 12 7 0
29 16 7 0
29 16 12 0
19 2 45 0
25 2 45 0
25 19 45 0
25 19 2 0
22 17 38 0
6 17 38 0
6 22 38 0
6 22 17 0
10 42 3 0
39 42 3 0
39 10 3 0
39 10 42 0
32 36 18 0
44 36 18 0
44 32 18 0
44 32 36 0
13 30 1 0
37 30 1 0
37 13 1 0
37 13 30 0
28 11 34 0
40 11 34 0
40 28 34 0
40 28 11 0
5 33 24 0
4 33 24 0
4 5 24 0
4 5 33 0
35 41 8 0
15 41 8 0
15 35 8 0
15 35 41 0
21 26 43 0
31 26 43 0
31 21 43 0
31 21 26 0
20 9 14 0
20 9 27 0
20 9 23 0
20 14 27 0
20 14 23 0
20 27 23 0
9 14 27 0
9 14 23 0
9 27 23 0
14 27 23 0
